<?xml version = "1.0" standalone="yes"?>
<!-- This file has been generated by DOcplex version 2.23.222  -->
<CPLEXSolution version="1.0">
 <header
   problemName="CVRP"
   objectiveValue="10588"
  />
 <variables>
  <variable name="x_0_3" index="2" value="1.00000"/>
  <variable name="x_0_4" index="3" value="1.00000"/>
  <variable name="x_0_6" index="5" value="1.00000"/>
  <variable name="x_0_7" index="6" value="1.00000"/>
  <variable name="x_0_9" index="8" value="1.00000"/>
  <variable name="x_0_10" index="9" value="1.00000"/>
  <variable name="x_0_12" index="11" value="1.00000"/>
  <variable name="x_0_16" index="15" value="1.00000"/>
  <variable name="x_0_17" index="16" value="1.00000"/>
  <variable name="x_0_18" index="17" value="1.00000"/>
  <variable name="x_0_20" index="19" value="1.00000"/>
  <variable name="x_1_5" index="26" value="1.00000"/>
  <variable name="x_2_21" index="64" value="1.00000"/>
  <variable name="x_3_22" index="87" value="1.00000"/>
  <variable name="x_4_13" index="100" value="1.00000"/>
  <variable name="x_5_0" index="110" value="1.00000"/>
  <variable name="x_6_0" index="132" value="1.00000"/>
  <variable name="x_7_0" index="154" value="1.00000"/>
  <variable name="x_8_11" index="186" value="1.00000"/>
  <variable name="x_9_2" index="200" value="1.00000"/>
  <variable name="x_10_0" index="220" value="1.00000"/>
  <variable name="x_11_0" index="242" value="1.00000"/>
  <variable name="x_12_8" index="272" value="1.00000"/>
  <variable name="x_13_0" index="286" value="1.00000"/>
  <variable name="x_14_15" index="322" value="1.00000"/>
  <variable name="x_15_0" index="330" value="1.00000"/>
  <variable name="x_16_0" index="352" value="1.00000"/>
  <variable name="x_17_1" index="375" value="1.00000"/>
  <variable name="x_18_19" index="414" value="1.00000"/>
  <variable name="x_19_0" index="418" value="1.00000"/>
  <variable name="x_20_14" index="454" value="1.00000"/>
  <variable name="x_21_0" index="462" value="1.00000"/>
  <variable name="x_22_0" index="484" value="1.00000"/>
  <variable name="u_1" index="506" value="55.00000"/>
  <variable name="u_2" index="507" value="70.00000"/>
  <variable name="u_3" index="508" value="42.00000"/>
  <variable name="u_4" index="509" value="47.00000"/>
  <variable name="u_5" index="510" value="72.00000"/>
  <variable name="u_6" index="511" value="75.00000"/>
  <variable name="u_7" index="512" value="75.00000"/>
  <variable name="u_8" index="513" value="48.00000"/>
  <variable name="u_9" index="514" value="21.00000"/>
  <variable name="u_10" index="515" value="68.00000"/>
  <variable name="u_11" index="516" value="75.00000"/>
  <variable name="u_12" index="517" value="14.00000"/>
  <variable name="u_13" index="518" value="75.00000"/>
  <variable name="u_14" index="519" value="73.00000"/>
  <variable name="u_15" index="520" value="75.00000"/>
  <variable name="u_16" index="521" value="59.00000"/>
  <variable name="u_17" index="522" value="49.00000"/>
  <variable name="u_18" index="523" value="35.00000"/>
  <variable name="u_19" index="524" value="69.00000"/>
  <variable name="u_20" index="525" value="12.00000"/>
  <variable name="u_21" index="526" value="75.00000"/>
  <variable name="u_22" index="527" value="75.00000"/>
 </variables>
</CPLEXSolution>
